940771
16 8 58436
8 11 17581
11 1 8732
1 21 6578
21 10 5744
10 35 6355
35 2 10541
2 27 15288
27 19 17774
19 4 26533
4 24 52566
24 22 45980
22 40 29078
40 18 18404
18 13 28045
13 28 6411
28 20 26675
20 32 24202
32 5 3290
5 12 38538
12 33 3967
33 26 15458
26 37 14546
37 30 941
30 39 6375
39 31 9087
31 25 7859
25 34 30137
34 23 31609
23 38 7449
38 29 745
29 7 22890
7 36 11794
36 6 22446
6 9 47658
9 15 71452
15 17 45489
17 14 42391
14 3 30026
3 16 71701
